Solver command line: ['C:\\Program Files\\IBM\\ILOG\\CPLEX_Studio2211\\cplex\\bin\\x64_win64\\cplex.exe']


Welcome to IBM(R) ILOG(R) CPLEX(R) Interactive Optimizer 22.1.1.0
  with Simplex, Mixed Integer & Barrier Optimizers
5725-A06 5725-A29 5724-Y48 5724-Y49 5724-Y54 5724-Y55 5655-Y21
Copyright IBM Corp. 1988, 2022.  All Rights Reserved.

Type 'help' for a list of available commands.
Type 'help' followed by a command name for more
information on commands.

CPLEX> Logfile 'cplex.log' closed.
Logfile 'C:\Users\wangy\Documents\GitHub\re_optimization\result_site_specific\tmpbh5lkr7c.cplex.log' open.
CPLEX> Problem 'C:\Users\wangy\Documents\GitHub\re_optimization\result_site_specific\tmpd3n1r9kp.pyomo.lp' read.
Read time = 0.22 sec. (7.29 ticks)
CPLEX> Problem name         : C:\Users\wangy\Documents\GitHub\re_optimization\result_site_specific\tmpd3n1r9kp.pyomo.lp
Objective sense      : Minimize
Variables            :   52617  [Nneg: 27764,  Free: 8786,  Binary: 7,
                                 Other: 16060]
Objective nonzeros   :      14
Linear constraints   :   73052  [Less: 39437,  Greater: 3,  Equal: 33612]
  Nonzeros           :  181253
  RHS nonzeros       :    2381

Variables            : Min LB: 0.000000         Max UB: 1.000000       
Objective nonzeros   : Min   : 1.000000         Max   : 1.000000       
Linear constraints   :
  Nonzeros           : Min   : 0.001964593      Max   : 100000.0       
  RHS nonzeros       : Min   : 0.2510000        Max   : 1000.000       
CPLEX> Version identifier: 22.1.1.0 | 2022-11-27 | 9160aff4d
Tried aggregator 3 times.
MIP Presolve eliminated 50762 rows and 31783 columns.
Aggregator did 8855 substitutions.
Reduced MIP has 13435 rows, 11979 columns, and 40016 nonzeros.
Reduced MIP has 5 binaries, 0 generals, 0 SOSs, and 0 indicators.
Presolve time = 0.12 sec. (149.98 ticks)
Found incumbent of value 144181.723251 after 0.16 sec. (172.01 ticks)
Probing time = 0.02 sec. (0.65 ticks)
Tried aggregator 1 time.
Detecting symmetries...
Reduced MIP has 13435 rows, 11979 columns, and 40016 nonzeros.
Reduced MIP has 5 binaries, 0 generals, 0 SOSs, and 0 indicators.
Presolve time = 0.02 sec. (23.93 ticks)
Probing time = 0.02 sec. (0.62 ticks)
MIP emphasis: balance optimality and feasibility.
MIP search method: dynamic search.
Parallel mode: deterministic, using up to 16 threads.
Root relaxation solution time = 0.38 sec. (380.28 ticks)

        Nodes                                         Cuts/
   Node  Left     Objective  IInf  Best Integer    Best Bound    ItCnt     Gap

*     0+    0                       144181.7233    -8029.8281           105.57%
      0     0     6545.7115     1   144181.7233     6545.7115       51   95.46%
*     0+    0                         8150.1658     6545.7115            19.69%
*     0+    0                         6626.3489     6545.7115             1.22%
      0     0        cutoff           6626.3489                     65    0.00%
Elapsed time = 0.69 sec. (669.09 ticks, tree = 0.01 MB, solutions = 3)

Root node processing (before b&c):
  Real time             =    0.70 sec. (671.50 ticks)
Parallel b&c, 16 threads:
  Real time             =    0.00 sec. (0.00 ticks)
  Sync time (average)   =    0.00 sec.
  Wait time (average)   =    0.00 sec.
                          ------------
Total (root+branch&cut) =    0.70 sec. (671.50 ticks)

Solution pool: 3 solutions saved.

MIP - Integer optimal solution:  Objective =  6.6263488992e+03
Solution time =    0.70 sec.  Iterations = 65  Nodes = 0
Deterministic time = 671.65 ticks  (955.40 ticks/sec)

CPLEX> Incumbent solution written to file 'C:\Users\wangy\Documents\GitHub\re_optimization\result_site_specific\tmp9ejkms8b.cplex.sol'.
CPLEX> 
